; benchmark generated from python API
(set-info :status unknown)
(declare-fun X_1_1 () Int)
(declare-fun X_1_2 () Int)
(declare-fun X_1_3 () Int)
(declare-fun X_1_4 () Int)
(declare-fun X_1_5 () Int)
(declare-fun X_1_6 () Int)
(declare-fun X_1_7 () Int)
(declare-fun X_1_8 () Int)
(declare-fun X_1_9 () Int)
(declare-fun X_2_1 () Int)
(declare-fun X_2_2 () Int)
(declare-fun X_2_3 () Int)
(declare-fun X_2_4 () Int)
(declare-fun X_2_5 () Int)
(declare-fun X_2_6 () Int)
(declare-fun X_2_7 () Int)
(declare-fun X_2_8 () Int)
(declare-fun X_2_9 () Int)
(declare-fun X_3_1 () Int)
(declare-fun X_3_2 () Int)
(declare-fun X_3_3 () Int)
(declare-fun X_3_4 () Int)
(declare-fun X_3_5 () Int)
(declare-fun X_3_6 () Int)
(declare-fun X_3_7 () Int)
(declare-fun X_3_8 () Int)
(declare-fun X_3_9 () Int)
(declare-fun X_4_1 () Int)
(declare-fun X_4_2 () Int)
(declare-fun X_4_3 () Int)
(declare-fun X_4_4 () Int)
(declare-fun X_4_5 () Int)
(declare-fun X_4_6 () Int)
(declare-fun X_4_7 () Int)
(declare-fun X_4_8 () Int)
(declare-fun X_4_9 () Int)
(declare-fun X_5_1 () Int)
(declare-fun X_5_2 () Int)
(declare-fun X_5_3 () Int)
(declare-fun X_5_4 () Int)
(declare-fun X_5_5 () Int)
(declare-fun X_5_6 () Int)
(declare-fun X_5_7 () Int)
(declare-fun X_5_8 () Int)
(declare-fun X_5_9 () Int)
(declare-fun X_6_1 () Int)
(declare-fun X_6_2 () Int)
(declare-fun X_6_3 () Int)
(declare-fun X_6_4 () Int)
(declare-fun X_6_5 () Int)
(declare-fun X_6_6 () Int)
(declare-fun X_6_7 () Int)
(declare-fun X_6_8 () Int)
(declare-fun X_6_9 () Int)
(declare-fun X_7_1 () Int)
(declare-fun X_7_2 () Int)
(declare-fun X_7_3 () Int)
(declare-fun X_7_4 () Int)
(declare-fun X_7_5 () Int)
(declare-fun X_7_6 () Int)
(declare-fun X_7_7 () Int)
(declare-fun X_7_8 () Int)
(declare-fun X_7_9 () Int)
(declare-fun X_8_1 () Int)
(declare-fun X_8_2 () Int)
(declare-fun X_8_3 () Int)
(declare-fun X_8_4 () Int)
(declare-fun X_8_5 () Int)
(declare-fun X_8_6 () Int)
(declare-fun X_8_7 () Int)
(declare-fun X_8_8 () Int)
(declare-fun X_8_9 () Int)
(declare-fun X_9_1 () Int)
(declare-fun X_9_2 () Int)
(declare-fun X_9_3 () Int)
(declare-fun X_9_4 () Int)
(declare-fun X_9_5 () Int)
(declare-fun X_9_6 () Int)
(declare-fun X_9_7 () Int)
(declare-fun X_9_8 () Int)
(declare-fun X_9_9 () Int)
(assert
 (or (= X_1_1 1) (= X_1_1 2) (= X_1_1 3) (= X_1_1 4) (= X_1_1 5) (= X_1_1 6) (= X_1_1 7) (= X_1_1 8) (= X_1_1 9)))
(assert
 (or (= X_1_2 1) (= X_1_2 2) (= X_1_2 3) (= X_1_2 4) (= X_1_2 5) (= X_1_2 6) (= X_1_2 7) (= X_1_2 8) (= X_1_2 9)))
(assert
 (or (= X_1_3 1) (= X_1_3 2) (= X_1_3 3) (= X_1_3 4) (= X_1_3 5) (= X_1_3 6) (= X_1_3 7) (= X_1_3 8) (= X_1_3 9)))
(assert
 (or (= X_1_4 1) (= X_1_4 2) (= X_1_4 3) (= X_1_4 4) (= X_1_4 5) (= X_1_4 6) (= X_1_4 7) (= X_1_4 8) (= X_1_4 9)))
(assert
 (or (= X_1_5 1) (= X_1_5 2) (= X_1_5 3) (= X_1_5 4) (= X_1_5 5) (= X_1_5 6) (= X_1_5 7) (= X_1_5 8) (= X_1_5 9)))
(assert
 (or (= X_1_6 1) (= X_1_6 2) (= X_1_6 3) (= X_1_6 4) (= X_1_6 5) (= X_1_6 6) (= X_1_6 7) (= X_1_6 8) (= X_1_6 9)))
(assert
 (or (= X_1_7 1) (= X_1_7 2) (= X_1_7 3) (= X_1_7 4) (= X_1_7 5) (= X_1_7 6) (= X_1_7 7) (= X_1_7 8) (= X_1_7 9)))
(assert
 (or (= X_1_8 1) (= X_1_8 2) (= X_1_8 3) (= X_1_8 4) (= X_1_8 5) (= X_1_8 6) (= X_1_8 7) (= X_1_8 8) (= X_1_8 9)))
(assert
 (or (= X_1_9 1) (= X_1_9 2) (= X_1_9 3) (= X_1_9 4) (= X_1_9 5) (= X_1_9 6) (= X_1_9 7) (= X_1_9 8) (= X_1_9 9)))
(assert
 (or (= X_2_1 1) (= X_2_1 2) (= X_2_1 3) (= X_2_1 4) (= X_2_1 5) (= X_2_1 6) (= X_2_1 7) (= X_2_1 8) (= X_2_1 9)))
(assert
 (or (= X_2_2 1) (= X_2_2 2) (= X_2_2 3) (= X_2_2 4) (= X_2_2 5) (= X_2_2 6) (= X_2_2 7) (= X_2_2 8) (= X_2_2 9)))
(assert
 (or (= X_2_3 1) (= X_2_3 2) (= X_2_3 3) (= X_2_3 4) (= X_2_3 5) (= X_2_3 6) (= X_2_3 7) (= X_2_3 8) (= X_2_3 9)))
(assert
 (or (= X_2_4 1) (= X_2_4 2) (= X_2_4 3) (= X_2_4 4) (= X_2_4 5) (= X_2_4 6) (= X_2_4 7) (= X_2_4 8) (= X_2_4 9)))
(assert
 (or (= X_2_5 1) (= X_2_5 2) (= X_2_5 3) (= X_2_5 4) (= X_2_5 5) (= X_2_5 6) (= X_2_5 7) (= X_2_5 8) (= X_2_5 9)))
(assert
 (or (= X_2_6 1) (= X_2_6 2) (= X_2_6 3) (= X_2_6 4) (= X_2_6 5) (= X_2_6 6) (= X_2_6 7) (= X_2_6 8) (= X_2_6 9)))
(assert
 (or (= X_2_7 1) (= X_2_7 2) (= X_2_7 3) (= X_2_7 4) (= X_2_7 5) (= X_2_7 6) (= X_2_7 7) (= X_2_7 8) (= X_2_7 9)))
(assert
 (or (= X_2_8 1) (= X_2_8 2) (= X_2_8 3) (= X_2_8 4) (= X_2_8 5) (= X_2_8 6) (= X_2_8 7) (= X_2_8 8) (= X_2_8 9)))
(assert
 (or (= X_2_9 1) (= X_2_9 2) (= X_2_9 3) (= X_2_9 4) (= X_2_9 5) (= X_2_9 6) (= X_2_9 7) (= X_2_9 8) (= X_2_9 9)))
(assert
 (or (= X_3_1 1) (= X_3_1 2) (= X_3_1 3) (= X_3_1 4) (= X_3_1 5) (= X_3_1 6) (= X_3_1 7) (= X_3_1 8) (= X_3_1 9)))
(assert
 (or (= X_3_2 1) (= X_3_2 2) (= X_3_2 3) (= X_3_2 4) (= X_3_2 5) (= X_3_2 6) (= X_3_2 7) (= X_3_2 8) (= X_3_2 9)))
(assert
 (or (= X_3_3 1) (= X_3_3 2) (= X_3_3 3) (= X_3_3 4) (= X_3_3 5) (= X_3_3 6) (= X_3_3 7) (= X_3_3 8) (= X_3_3 9)))
(assert
 (or (= X_3_4 1) (= X_3_4 2) (= X_3_4 3) (= X_3_4 4) (= X_3_4 5) (= X_3_4 6) (= X_3_4 7) (= X_3_4 8) (= X_3_4 9)))
(assert
 (or (= X_3_5 1) (= X_3_5 2) (= X_3_5 3) (= X_3_5 4) (= X_3_5 5) (= X_3_5 6) (= X_3_5 7) (= X_3_5 8) (= X_3_5 9)))
(assert
 (or (= X_3_6 1) (= X_3_6 2) (= X_3_6 3) (= X_3_6 4) (= X_3_6 5) (= X_3_6 6) (= X_3_6 7) (= X_3_6 8) (= X_3_6 9)))
(assert
 (or (= X_3_7 1) (= X_3_7 2) (= X_3_7 3) (= X_3_7 4) (= X_3_7 5) (= X_3_7 6) (= X_3_7 7) (= X_3_7 8) (= X_3_7 9)))
(assert
 (or (= X_3_8 1) (= X_3_8 2) (= X_3_8 3) (= X_3_8 4) (= X_3_8 5) (= X_3_8 6) (= X_3_8 7) (= X_3_8 8) (= X_3_8 9)))
(assert
 (or (= X_3_9 1) (= X_3_9 2) (= X_3_9 3) (= X_3_9 4) (= X_3_9 5) (= X_3_9 6) (= X_3_9 7) (= X_3_9 8) (= X_3_9 9)))
(assert
 (or (= X_4_1 1) (= X_4_1 2) (= X_4_1 3) (= X_4_1 4) (= X_4_1 5) (= X_4_1 6) (= X_4_1 7) (= X_4_1 8) (= X_4_1 9)))
(assert
 (or (= X_4_2 1) (= X_4_2 2) (= X_4_2 3) (= X_4_2 4) (= X_4_2 5) (= X_4_2 6) (= X_4_2 7) (= X_4_2 8) (= X_4_2 9)))
(assert
 (or (= X_4_3 1) (= X_4_3 2) (= X_4_3 3) (= X_4_3 4) (= X_4_3 5) (= X_4_3 6) (= X_4_3 7) (= X_4_3 8) (= X_4_3 9)))
(assert
 (or (= X_4_4 1) (= X_4_4 2) (= X_4_4 3) (= X_4_4 4) (= X_4_4 5) (= X_4_4 6) (= X_4_4 7) (= X_4_4 8) (= X_4_4 9)))
(assert
 (or (= X_4_5 1) (= X_4_5 2) (= X_4_5 3) (= X_4_5 4) (= X_4_5 5) (= X_4_5 6) (= X_4_5 7) (= X_4_5 8) (= X_4_5 9)))
(assert
 (or (= X_4_6 1) (= X_4_6 2) (= X_4_6 3) (= X_4_6 4) (= X_4_6 5) (= X_4_6 6) (= X_4_6 7) (= X_4_6 8) (= X_4_6 9)))
(assert
 (or (= X_4_7 1) (= X_4_7 2) (= X_4_7 3) (= X_4_7 4) (= X_4_7 5) (= X_4_7 6) (= X_4_7 7) (= X_4_7 8) (= X_4_7 9)))
(assert
 (or (= X_4_8 1) (= X_4_8 2) (= X_4_8 3) (= X_4_8 4) (= X_4_8 5) (= X_4_8 6) (= X_4_8 7) (= X_4_8 8) (= X_4_8 9)))
(assert
 (or (= X_4_9 1) (= X_4_9 2) (= X_4_9 3) (= X_4_9 4) (= X_4_9 5) (= X_4_9 6) (= X_4_9 7) (= X_4_9 8) (= X_4_9 9)))
(assert
 (or (= X_5_1 1) (= X_5_1 2) (= X_5_1 3) (= X_5_1 4) (= X_5_1 5) (= X_5_1 6) (= X_5_1 7) (= X_5_1 8) (= X_5_1 9)))
(assert
 (or (= X_5_2 1) (= X_5_2 2) (= X_5_2 3) (= X_5_2 4) (= X_5_2 5) (= X_5_2 6) (= X_5_2 7) (= X_5_2 8) (= X_5_2 9)))
(assert
 (or (= X_5_3 1) (= X_5_3 2) (= X_5_3 3) (= X_5_3 4) (= X_5_3 5) (= X_5_3 6) (= X_5_3 7) (= X_5_3 8) (= X_5_3 9)))
(assert
 (or (= X_5_4 1) (= X_5_4 2) (= X_5_4 3) (= X_5_4 4) (= X_5_4 5) (= X_5_4 6) (= X_5_4 7) (= X_5_4 8) (= X_5_4 9)))
(assert
 (or (= X_5_5 1) (= X_5_5 2) (= X_5_5 3) (= X_5_5 4) (= X_5_5 5) (= X_5_5 6) (= X_5_5 7) (= X_5_5 8) (= X_5_5 9)))
(assert
 (or (= X_5_6 1) (= X_5_6 2) (= X_5_6 3) (= X_5_6 4) (= X_5_6 5) (= X_5_6 6) (= X_5_6 7) (= X_5_6 8) (= X_5_6 9)))
(assert
 (or (= X_5_7 1) (= X_5_7 2) (= X_5_7 3) (= X_5_7 4) (= X_5_7 5) (= X_5_7 6) (= X_5_7 7) (= X_5_7 8) (= X_5_7 9)))
(assert
 (or (= X_5_8 1) (= X_5_8 2) (= X_5_8 3) (= X_5_8 4) (= X_5_8 5) (= X_5_8 6) (= X_5_8 7) (= X_5_8 8) (= X_5_8 9)))
(assert
 (or (= X_5_9 1) (= X_5_9 2) (= X_5_9 3) (= X_5_9 4) (= X_5_9 5) (= X_5_9 6) (= X_5_9 7) (= X_5_9 8) (= X_5_9 9)))
(assert
 (or (= X_6_1 1) (= X_6_1 2) (= X_6_1 3) (= X_6_1 4) (= X_6_1 5) (= X_6_1 6) (= X_6_1 7) (= X_6_1 8) (= X_6_1 9)))
(assert
 (or (= X_6_2 1) (= X_6_2 2) (= X_6_2 3) (= X_6_2 4) (= X_6_2 5) (= X_6_2 6) (= X_6_2 7) (= X_6_2 8) (= X_6_2 9)))
(assert
 (or (= X_6_3 1) (= X_6_3 2) (= X_6_3 3) (= X_6_3 4) (= X_6_3 5) (= X_6_3 6) (= X_6_3 7) (= X_6_3 8) (= X_6_3 9)))
(assert
 (or (= X_6_4 1) (= X_6_4 2) (= X_6_4 3) (= X_6_4 4) (= X_6_4 5) (= X_6_4 6) (= X_6_4 7) (= X_6_4 8) (= X_6_4 9)))
(assert
 (or (= X_6_5 1) (= X_6_5 2) (= X_6_5 3) (= X_6_5 4) (= X_6_5 5) (= X_6_5 6) (= X_6_5 7) (= X_6_5 8) (= X_6_5 9)))
(assert
 (or (= X_6_6 1) (= X_6_6 2) (= X_6_6 3) (= X_6_6 4) (= X_6_6 5) (= X_6_6 6) (= X_6_6 7) (= X_6_6 8) (= X_6_6 9)))
(assert
 (or (= X_6_7 1) (= X_6_7 2) (= X_6_7 3) (= X_6_7 4) (= X_6_7 5) (= X_6_7 6) (= X_6_7 7) (= X_6_7 8) (= X_6_7 9)))
(assert
 (or (= X_6_8 1) (= X_6_8 2) (= X_6_8 3) (= X_6_8 4) (= X_6_8 5) (= X_6_8 6) (= X_6_8 7) (= X_6_8 8) (= X_6_8 9)))
(assert
 (or (= X_6_9 1) (= X_6_9 2) (= X_6_9 3) (= X_6_9 4) (= X_6_9 5) (= X_6_9 6) (= X_6_9 7) (= X_6_9 8) (= X_6_9 9)))
(assert
 (or (= X_7_1 1) (= X_7_1 2) (= X_7_1 3) (= X_7_1 4) (= X_7_1 5) (= X_7_1 6) (= X_7_1 7) (= X_7_1 8) (= X_7_1 9)))
(assert
 (or (= X_7_2 1) (= X_7_2 2) (= X_7_2 3) (= X_7_2 4) (= X_7_2 5) (= X_7_2 6) (= X_7_2 7) (= X_7_2 8) (= X_7_2 9)))
(assert
 (or (= X_7_3 1) (= X_7_3 2) (= X_7_3 3) (= X_7_3 4) (= X_7_3 5) (= X_7_3 6) (= X_7_3 7) (= X_7_3 8) (= X_7_3 9)))
(assert
 (or (= X_7_4 1) (= X_7_4 2) (= X_7_4 3) (= X_7_4 4) (= X_7_4 5) (= X_7_4 6) (= X_7_4 7) (= X_7_4 8) (= X_7_4 9)))
(assert
 (or (= X_7_5 1) (= X_7_5 2) (= X_7_5 3) (= X_7_5 4) (= X_7_5 5) (= X_7_5 6) (= X_7_5 7) (= X_7_5 8) (= X_7_5 9)))
(assert
 (or (= X_7_6 1) (= X_7_6 2) (= X_7_6 3) (= X_7_6 4) (= X_7_6 5) (= X_7_6 6) (= X_7_6 7) (= X_7_6 8) (= X_7_6 9)))
(assert
 (or (= X_7_7 1) (= X_7_7 2) (= X_7_7 3) (= X_7_7 4) (= X_7_7 5) (= X_7_7 6) (= X_7_7 7) (= X_7_7 8) (= X_7_7 9)))
(assert
 (or (= X_7_8 1) (= X_7_8 2) (= X_7_8 3) (= X_7_8 4) (= X_7_8 5) (= X_7_8 6) (= X_7_8 7) (= X_7_8 8) (= X_7_8 9)))
(assert
 (or (= X_7_9 1) (= X_7_9 2) (= X_7_9 3) (= X_7_9 4) (= X_7_9 5) (= X_7_9 6) (= X_7_9 7) (= X_7_9 8) (= X_7_9 9)))
(assert
 (or (= X_8_1 1) (= X_8_1 2) (= X_8_1 3) (= X_8_1 4) (= X_8_1 5) (= X_8_1 6) (= X_8_1 7) (= X_8_1 8) (= X_8_1 9)))
(assert
 (or (= X_8_2 1) (= X_8_2 2) (= X_8_2 3) (= X_8_2 4) (= X_8_2 5) (= X_8_2 6) (= X_8_2 7) (= X_8_2 8) (= X_8_2 9)))
(assert
 (or (= X_8_3 1) (= X_8_3 2) (= X_8_3 3) (= X_8_3 4) (= X_8_3 5) (= X_8_3 6) (= X_8_3 7) (= X_8_3 8) (= X_8_3 9)))
(assert
 (or (= X_8_4 1) (= X_8_4 2) (= X_8_4 3) (= X_8_4 4) (= X_8_4 5) (= X_8_4 6) (= X_8_4 7) (= X_8_4 8) (= X_8_4 9)))
(assert
 (or (= X_8_5 1) (= X_8_5 2) (= X_8_5 3) (= X_8_5 4) (= X_8_5 5) (= X_8_5 6) (= X_8_5 7) (= X_8_5 8) (= X_8_5 9)))
(assert
 (or (= X_8_6 1) (= X_8_6 2) (= X_8_6 3) (= X_8_6 4) (= X_8_6 5) (= X_8_6 6) (= X_8_6 7) (= X_8_6 8) (= X_8_6 9)))
(assert
 (or (= X_8_7 1) (= X_8_7 2) (= X_8_7 3) (= X_8_7 4) (= X_8_7 5) (= X_8_7 6) (= X_8_7 7) (= X_8_7 8) (= X_8_7 9)))
(assert
 (or (= X_8_8 1) (= X_8_8 2) (= X_8_8 3) (= X_8_8 4) (= X_8_8 5) (= X_8_8 6) (= X_8_8 7) (= X_8_8 8) (= X_8_8 9)))
(assert
 (or (= X_8_9 1) (= X_8_9 2) (= X_8_9 3) (= X_8_9 4) (= X_8_9 5) (= X_8_9 6) (= X_8_9 7) (= X_8_9 8) (= X_8_9 9)))
(assert
 (or (= X_9_1 1) (= X_9_1 2) (= X_9_1 3) (= X_9_1 4) (= X_9_1 5) (= X_9_1 6) (= X_9_1 7) (= X_9_1 8) (= X_9_1 9)))
(assert
 (or (= X_9_2 1) (= X_9_2 2) (= X_9_2 3) (= X_9_2 4) (= X_9_2 5) (= X_9_2 6) (= X_9_2 7) (= X_9_2 8) (= X_9_2 9)))
(assert
 (or (= X_9_3 1) (= X_9_3 2) (= X_9_3 3) (= X_9_3 4) (= X_9_3 5) (= X_9_3 6) (= X_9_3 7) (= X_9_3 8) (= X_9_3 9)))
(assert
 (or (= X_9_4 1) (= X_9_4 2) (= X_9_4 3) (= X_9_4 4) (= X_9_4 5) (= X_9_4 6) (= X_9_4 7) (= X_9_4 8) (= X_9_4 9)))
(assert
 (or (= X_9_5 1) (= X_9_5 2) (= X_9_5 3) (= X_9_5 4) (= X_9_5 5) (= X_9_5 6) (= X_9_5 7) (= X_9_5 8) (= X_9_5 9)))
(assert
 (or (= X_9_6 1) (= X_9_6 2) (= X_9_6 3) (= X_9_6 4) (= X_9_6 5) (= X_9_6 6) (= X_9_6 7) (= X_9_6 8) (= X_9_6 9)))
(assert
 (or (= X_9_7 1) (= X_9_7 2) (= X_9_7 3) (= X_9_7 4) (= X_9_7 5) (= X_9_7 6) (= X_9_7 7) (= X_9_7 8) (= X_9_7 9)))
(assert
 (or (= X_9_8 1) (= X_9_8 2) (= X_9_8 3) (= X_9_8 4) (= X_9_8 5) (= X_9_8 6) (= X_9_8 7) (= X_9_8 8) (= X_9_8 9)))
(assert
 (or (= X_9_9 1) (= X_9_9 2) (= X_9_9 3) (= X_9_9 4) (= X_9_9 5) (= X_9_9 6) (= X_9_9 7) (= X_9_9 8) (= X_9_9 9)))
(assert
 (and (distinct X_1_1 X_1_2 X_1_3 X_1_4 X_1_5 X_1_6 X_1_7 X_1_8 X_1_9) true))
(assert
 (and (distinct X_1_1 X_2_1 X_3_1 X_4_1 X_5_1 X_6_1 X_7_1 X_8_1 X_9_1) true))
(assert
 (and (distinct X_2_1 X_2_2 X_2_3 X_2_4 X_2_5 X_2_6 X_2_7 X_2_8 X_2_9) true))
(assert
 (and (distinct X_1_2 X_2_2 X_3_2 X_4_2 X_5_2 X_6_2 X_7_2 X_8_2 X_9_2) true))
(assert
 (and (distinct X_3_1 X_3_2 X_3_3 X_3_4 X_3_5 X_3_6 X_3_7 X_3_8 X_3_9) true))
(assert
 (and (distinct X_1_3 X_2_3 X_3_3 X_4_3 X_5_3 X_6_3 X_7_3 X_8_3 X_9_3) true))
(assert
 (and (distinct X_4_1 X_4_2 X_4_3 X_4_4 X_4_5 X_4_6 X_4_7 X_4_8 X_4_9) true))
(assert
 (and (distinct X_1_4 X_2_4 X_3_4 X_4_4 X_5_4 X_6_4 X_7_4 X_8_4 X_9_4) true))
(assert
 (and (distinct X_5_1 X_5_2 X_5_3 X_5_4 X_5_5 X_5_6 X_5_7 X_5_8 X_5_9) true))
(assert
 (and (distinct X_1_5 X_2_5 X_3_5 X_4_5 X_5_5 X_6_5 X_7_5 X_8_5 X_9_5) true))
(assert
 (and (distinct X_6_1 X_6_2 X_6_3 X_6_4 X_6_5 X_6_6 X_6_7 X_6_8 X_6_9) true))
(assert
 (and (distinct X_1_6 X_2_6 X_3_6 X_4_6 X_5_6 X_6_6 X_7_6 X_8_6 X_9_6) true))
(assert
 (and (distinct X_7_1 X_7_2 X_7_3 X_7_4 X_7_5 X_7_6 X_7_7 X_7_8 X_7_9) true))
(assert
 (and (distinct X_1_7 X_2_7 X_3_7 X_4_7 X_5_7 X_6_7 X_7_7 X_8_7 X_9_7) true))
(assert
 (and (distinct X_8_1 X_8_2 X_8_3 X_8_4 X_8_5 X_8_6 X_8_7 X_8_8 X_8_9) true))
(assert
 (and (distinct X_1_8 X_2_8 X_3_8 X_4_8 X_5_8 X_6_8 X_7_8 X_8_8 X_9_8) true))
(assert
 (and (distinct X_9_1 X_9_2 X_9_3 X_9_4 X_9_5 X_9_6 X_9_7 X_9_8 X_9_9) true))
(assert
 (and (distinct X_1_9 X_2_9 X_3_9 X_4_9 X_5_9 X_6_9 X_7_9 X_8_9 X_9_9) true))
(assert
 (and (distinct X_1_1 X_1_2 X_1_3 X_2_1 X_2_2 X_2_3 X_3_1 X_3_2 X_3_3) true))
(assert
 (and (distinct X_1_4 X_1_5 X_1_6 X_2_4 X_2_5 X_2_6 X_3_4 X_3_5 X_3_6) true))
(assert
 (and (distinct X_1_7 X_1_8 X_1_9 X_2_7 X_2_8 X_2_9 X_3_7 X_3_8 X_3_9) true))
(assert
 (and (distinct X_4_1 X_4_2 X_4_3 X_5_1 X_5_2 X_5_3 X_6_1 X_6_2 X_6_3) true))
(assert
 (and (distinct X_4_4 X_4_5 X_4_6 X_5_4 X_5_5 X_5_6 X_6_4 X_6_5 X_6_6) true))
(assert
 (and (distinct X_4_7 X_4_8 X_4_9 X_5_7 X_5_8 X_5_9 X_6_7 X_6_8 X_6_9) true))
(assert
 (and (distinct X_7_1 X_7_2 X_7_3 X_8_1 X_8_2 X_8_3 X_9_1 X_9_2 X_9_3) true))
(assert
 (and (distinct X_7_4 X_7_5 X_7_6 X_8_4 X_8_5 X_8_6 X_9_4 X_9_5 X_9_6) true))
(assert
 (and (distinct X_7_7 X_7_8 X_7_9 X_8_7 X_8_8 X_8_9 X_9_7 X_9_8 X_9_9) true))
(check-sat)
